c PicoSAT SAT Solver Version 959
c Copyright (c) 2006 - 2014 Armin Biere JKU Linz
c gcc -Wall -Wextra -DNDEBUG -O3 -fno-strict-aliasing
c
c using 2 as default phase
c
c parsing <stdin>
c parsed header 'p cnf 200 850'
c initialized 200 variables
c found 850 non trivial clauses
c
c random number generator seed 0
c 
c  seconds     variables   original    learned     agility
c         level        used      conflicts    limit          MB
c 
c s   0.0   0.0   200   0.0   850     0     0     0   0.0   0.0 
c 
c initial reduction limit 1000 clauses
c 
c +   0.0  23.4   200  87.0   850   100   100  1100   9.9   0.0 
c R   0.0  23.4   200  87.5   850   101   101  1100  10.1   0.0 
c +   0.0  17.7   200  96.0   850   221   221  1210  18.7   0.1 
c +   0.0  15.4   200  99.0   850   367   367  1331  24.5   0.1 
c N   0.0  15.4   200  99.0   850   402   402  1331  24.6   0.1 
c +   0.0  14.6   200  99.0   850   543   543  1464  27.4   0.1 
c +   0.0  13.5   200  99.5   850   755   755  1610  30.2   0.1 
c +   0.0  13.0   200  99.5   850  1011  1011  1771  31.6   0.1 
c N   0.0  12.7   200  99.5   850  1208  1208  1771  31.6   0.1 
c +   0.0  12.5   200  99.5   850  1320  1320  1948  31.3   0.1 
c +   0.0  12.2   200  99.5   850  1693  1693  2142  31.1   0.2 
c +   0.0  11.7   200  99.5   850  2144  2144  2356  32.5   0.2 
c +   0.0  11.4   200  99.5   850  2689  1506  2591  31.4   0.2 
c N   0.0  11.1   200  99.5   850  3211  2028  2591  30.1   0.2 
c +   0.0  11.0   200  99.5   850  3348  2165  2850  31.0   0.2 
c +   0.0  10.7   200  99.5   850  4145  1530  3135  31.1   0.2 
c +   0.1  10.3   200  99.5   850  5109  2494  3448  31.3   0.2 
c +   0.1  10.4   200  99.5   850  6275  1931  3792  32.1   0.2 
c 1   0.1  10.6   200  99.5   850  7032  2688  3792  30.4   0.2 
c 
c  seconds     variables   original    learned     agility
c         level        used      conflicts    limit          MB
c 
s SATISFIABLE
v 1 2 3 4 -5 6 7 -8 -9 -10 -11 -12 13 -14 15 16 -17 18 19 20 21 22 23 -24 25
v -26 27 28 -29 -30 31 -32 33 -34 35 36 37 38 -39 -40 -41 -42 43 44 -45 46 47
v 48 49 50 -51 -52 -53 54 -55 -56 57 -58 -59 -60 61 -62 63 64 -65 66 -67 -68 69
v 70 71 -72 73 -74 -75 76 -77 -78 79 -80 -81 -82 -83 84 85 86 -87 -88 89 -90
v -91 92 93 -94 95 -96 97 98 -99 100 101 102 -103 104 -105 106 -107 108 109
v -110 111 112 113 114 115 116 117 -118 119 -120 121 -122 123 124 -125 126 -127
v -128 129 -130 -131 132 -133 134 -135 -136 -137 -138 -139 -140 -141 -142 -143
v 144 -145 146 147 -148 -149 150 -151 -152 153 154 155 -156 157 158 -159 -160
v 161 -162 163 -164 -165 -166 167 168 169 170 -171 -172 -173 -174 -175 176 177
v -178 179 180 181 -182 183 184 185 186 187 188 -189 190 191 192 -193 -194 -195
v 196 197 198 199 200 0
c
c 0 iterations
c 2 restarts
c 0 failed literals
c 7032 conflicts
c 8293 decisions
c 0 fixed variables
c 79603 learned literals
c 23.4% deleted literals
c 339073 propagations
c 1957051 visits
c 99.5% variables used
c 0.1 seconds in library
c 4.8 megaprops/second
c 27.6 megavisits/second
c probing 0.0 seconds 1%
c 1 simplifications
c 3 reductions
c 0.3 MB recycled
c 0.3 MB maximally allocated
c 0.071000 seconds total run time
